9669
9669
9705
9705
9801
9904
9904
9904
9904
9904
9904
9904
9904
9904
9904
9904
9904
10083
10083
10083
10083
10083
10083
10083
10083
10083
10083
10083
10083
10083
10083
10083
10083
10083
10083
10084
10084
10084
10084
10084
10084
10084
10113
10113
10113
10113
10113
10113
10113
10113
10113
10113
10113
10113
10113
10113
10113
10113
10113
10113
10113
10113
10113
10113
10113
10113
10113
10113
10113
10113
10113
10113
10113
10113
10113
10113
10113
10113
10113
10113
10113
10113
10113
10113
10113
10113
10113
10113
10113
10113
10113
10113
10113
10113
10113
10113
10113
10113
10113
